(set-info :smt-lib-version 2.6)
(set-logic QF_S)
(set-info :source |
Generated by: Joel Day, Thorsten Ehlers, Mitja Kulczynski, Federico Mora, Florin Manea, Dirk Nowotka, Danny Poulsen, Zhengyang Lu
Application: Test WOORPJE
Target solver: WOORPJE
Publications: Day, J. D., Ehlers, T., Kulczynski, M., Manea, F., Nowotka, D., & Poulsen, D. B. (2019). On solving word equations using SAT. In RP 2019
Description: Consisting of a system of 100 small random word equations with at most 6 letters, 10 variables and length 60.
|)
(set-info :license "https://creativecommons.org/licenses/by/4.0/")
(set-info :category "random")
(set-info :status unknown)

(declare-fun A () String)
(assert (= (str.++  "bcbab" A "badedcd")  (str.++  "bcbab" A "badedcd") ))
(assert (= (str.++  A A "eceeceabab")  (str.++  "ac" A "eceeceabab") ))
(assert (= (str.++  "bcac" A "e" A "eddad")  (str.++  "bc" A A "e" A "eddad") ))
(assert (= (str.++  "bbbcdaeabaaaca" "")  (str.++  "bbbcdaeabaa" A "a") ))
(check-sat)

(exit)
